1 -1 -2 0
1 1 -3 0
1 1 -4 0
1 1 -5 0
1 -2 6 0
1 2 -3 0
1 -2 1 0
1 2 4 0
1 2 -5 0
1 -7 8 0
1 -7 9 0
1 -7 10 0
1 -7 -6 0
1 7 3 0
1 -7 11 0
1 -7 12 0
1 7 -13 0
1 -7 -4 0
1 -7 5 0
1 10 8 0
1 -10 -9 0
1 -10 14 0
1 10 6 0
1 10 -3 0
1 10 -12 0
1 -10 7 0
1 -10 4 0
1 10 5 0
1 3 15 0
1 3 16 0
1 -3 17 0
1 -3 -10 0
1 3 -2 0
1 -3 18 0
1 3 19 0
1 3 20 0
1 -3 21 0
1 -3 -7 0
1 3 1 0
1 -3 5 0
1 -5 22 0
1 -5 15 0
1 -5 16 0
1 5 17 0
1 -5 10 0
1 5 2 0
1 -5 3 0
1 -5 19 0
1 -5 -20 0
1 -5 21 0
1 5 7 0
1 5 1 0
1 -6 -15 0
1 -6 -23 0
1 6 -24 0
1 6 -10 0
1 6 2 0
1 -6 25 0
1 6 19 0
1 -6 26 0
1 -6 27 0
1 -6 7 0
1 6 -1 0
1 6 -4 0
1 -4 15 0
1 -4 -23 0
1 -4 -24 0
1 -4 10 0
1 -4 -2 0
1 -4 -6 0
1 -4 -19 0
1 4 26 0
1 -4 -27 0
1 4 7 0
1 -4 1 0
1 -4 -28 0
1 21 8 0
1 -21 9 0
1 21 -3 0
1 21 11 0
1 21 12 0
1 21 27 0
1 21 -5 0
1 -17 -8 0
1 -17 -9 0
1 17 24 0
1 -17 -11 0
1 -17 12 0
1 -17 -21 0
1 20 8 0
1 -20 -9 0
1 20 -16 0
1 20 -29 0
1 20 -30 0
1 -20 -3 0
1 20 -11 0
1 20 -12 0
1 20 31 0
1 -20 -32 0
1 -20 5 0
1 -16 -8 0
1 16 29 0
1 -16 23 0
1 -16 -30 0
1 16 -3 0
1 16 -11 0
1 16 12 0
1 16 20 0
1 16 -31 0
1 -16 32 0
1 16 5 0
1 -12 -33 0
1 12 34 0
1 12 -9 0
1 -12 -16 0
1 -12 -17 0
1 -12 35 0
1 -12 -36 0
1 -12 37 0
1 -12 20 0
1 12 21 0
1 -12 -7 0
1 -12 -38 0
1 -9 33 0
1 9 34 0
1 9 -39 0
1 9 16 0
1 9 -17 0
1 9 10 0
1 9 40 0
1 9 -36 0
1 9 -12 0
1 -9 -20 0
1 9 -21 0
1 9 7 0
1 -9 -38 0
1 11 -8 0
1 11 41 0
1 -11 -15 0
1 11 35 0
1 -11 42 0
1 -11 43 0
1 -11 19 0
1 11 20 0
1 -11 -21 0
1 11 7 0
1 8 -41 0
1 -8 -44 0
1 -8 -15 0
1 -8 -16 0
1 -8 17 0
1 8 -10 0
1 -8 -35 0
1 8 -11 0
1 -8 42 0
1 -8 19 0
1 8 -20 0
1 -8 -21 0
1 -8 38 0
1 -36 34 0
1 -36 -9 0
1 36 -29 0
1 -36 30 0
1 36 12 0
1 36 -19 0
1 -34 15 0
1 34 29 0
1 34 30 0
1 -34 36 0
1 34 12 0
1 -34 -32 0
1 -40 -9 0
1 -40 29 0
1 -40 -30 0
1 -40 42 0
1 40 -12 0
1 -40 -31 0
1 40 32 0
1 33 -41 0
1 33 -9 0
1 -33 30 0
1 -33 -40 0
1 -33 12 0
1 -33 31 0
1 -33 -32 0
1 -32 -33 0
1 32 -34 0
1 -32 16 0
1 -32 -45 0
1 32 40 0
1 -32 -36 0
1 -32 -20 0
1 -32 46 0
1 32 -47 0
1 -30 -33 0
1 -30 -34 0
1 30 -16 0
1 -30 -48 0
1 30 45 0
1 -30 40 0
1 30 36 0
1 30 20 0
1 30 -32 0
1 -30 -47 0
1 31 33 0
1 31 34 0
1 31 -16 0
1 31 29 0
1 31 45 0
1 -31 49 0
1 -31 -35 0
1 31 40 0
1 31 36 0
1 -31 20 0
1 31 -50 0
1 -31 47 0
1 31 -38 0
1 -29 -33 0
1 -29 34 0
1 29 -16 0
1 29 51 0
1 29 45 0
1 29 -49 0
1 29 35 0
1 29 40 0
1 -29 -36 0
1 -29 20 0
1 -29 -31 0
1 29 -47 0
1 29 -52 0
1 -29 38 0
1 -53 54 0
1 53 55 0
1 -53 56 0
1 -53 -57 0
1 -53 -58 0
1 53 1 0
1 53 -59 0
1 56 -54 0
1 -56 55 0
1 -56 -2 0
1 -56 -60 0
1 -56 -57 0
1 56 58 0
1 56 -53 0
1 13 -54 0
1 13 -55 0
1 13 -61 0
1 -13 -62 0
1 -13 14 0
1 13 58 0
1 13 -63 0
1 -13 -64 0
1 13 -7 0
1 -13 65 0
1 14 -54 0
1 14 -55 0
1 14 61 0
1 14 -62 0
1 14 10 0
1 14 66 0
1 14 -57 0
1 -14 -58 0
1 14 63 0
1 -14 -64 0
1 14 -13 0
1 -55 -67 0
1 55 23 0
1 -55 -24 0
1 55 56 0
1 -55 -58 0
1 -55 -13 0
1 55 -53 0
1 -58 -67 0
1 58 23 0
1 58 -24 0
1 -58 -14 0
1 58 56 0
1 -58 68 0
1 58 69 0
1 58 -26 0
1 58 -27 0
1 58 13 0
1 58 53 0
1 54 70 0
1 -54 67 0
1 -54 71 0
1 -54 -72 0
1 54 14 0
1 54 56 0
1 -54 -57 0
1 -54 -69 0
1 54 73 0
1 54 74 0
1 -54 -13 0
1 54 53 0
1 -57 -54 0
1 -57 -67 0
1 57 71 0
1 57 72 0
1 -57 -14 0
1 -57 -75 0
1 -57 69 0
1 57 73 0
1 -57 -13 0
1 -57 -53 0
1 -27 -55 0
1 27 -61 0
1 -27 -24 0
1 27 62 0
1 27 63 0
1 -27 -64 0
1 -27 21 0
1 -27 74 0
1 27 4 0
1 -24 -55 0
1 -24 -61 0
1 24 -17 0
1 -24 -72 0
1 24 6 0
1 24 58 0
1 24 63 0
1 24 -64 0
1 -24 -27 0
1 24 4 0
1 -26 55 0
1 26 23 0
1 26 -61 0
1 -26 62 0
1 -26 -76 0
1 26 -77 0
1 -26 6 0
1 26 58 0
1 -26 -63 0
1 -26 -64 0
1 -26 73 0
1 -26 -78 0
1 -26 -79 0
1 26 4 0
1 -23 64 0
1 23 16 0
1 -23 -61 0
1 -23 -71 0
1 -23 -62 0
1 -23 -76 0
1 -23 -77 0
1 -23 6 0
1 23 26 0
1 -23 78 0
1 -23 79 0
1 23 4 0
1 -62 -80 0
1 62 64 0
1 62 41 0
1 -62 -15 0
1 -62 -24 0
1 -62 81 0
1 -62 14 0
1 62 82 0
1 -62 -42 0
1 62 19 0
1 -62 -26 0
1 62 27 0
1 62 -13 0
1 64 -41 0
1 64 -15 0
1 -64 -23 0
1 64 62 0
1 -64 -14 0
1 64 42 0
1 -64 -19 0
1 -64 -26 0
1 64 -83 0
1 -64 27 0
1 -64 -13 0
1 61 -80 0
1 61 -84 0
1 61 -67 0
1 61 -23 0
1 -61 -85 0
1 61 24 0
1 -61 14 0
1 61 82 0
1 -61 -86 0
1 61 -63 0
1 61 -69 0
1 61 26 0
1 -61 -27 0
1 -61 -13 0
1 63 80 0
1 63 84 0
1 63 -67 0
1 63 -23 0
1 -63 -61 0
1 -63 24 0
1 -63 14 0
1 -63 -82 0
1 63 86 0
1 63 87 0
1 -63 -13 0
1 -19 -8 0
1 19 15 0
1 19 62 0
1 19 76 0
1 19 77 0
1 19 6 0
1 -19 3 0
1 -19 -11 0
1 -19 36 0
1 -19 69 0
1 19 64 0
1 -19 -4 0
1 19 5 0
1 15 -8 0
1 -15 34 0
1 15 62 0
1 -15 77 0
1 -15 -6 0
1 15 3 0
1 15 -11 0
1 -15 64 0
1 -15 -79 0
1 -15 -4 0
1 15 -5 0
1 42 -22 0
1 -42 8 0
1 42 -41 0
1 42 62 0
1 -42 76 0
1 42 77 0
1 42 -25 0
1 -42 18 0
1 42 -11 0
1 -42 40 0
1 -42 86 0
1 -42 -64 0
1 -42 -78 0
1 -42 79 0
1 -41 -22 0
1 -41 33 0
1 41 -84 0
1 41 62 0
1 41 77 0
1 41 25 0
1 41 18 0
1 41 11 0
1 41 42 0
1 -41 -64 0
1 -41 78 0
1 41 28 0
1 77 -41 0
1 77 15 0
1 77 -23 0
1 77 -88 0
1 77 -49 0
1 -77 -89 0
1 77 42 0
1 77 19 0
1 77 26 0
1 77 -79 0
1 77 90 0
1 -77 -52 0
1 77 38 0
1 79 -41 0
1 79 15 0
1 79 23 0
1 79 77 0
1 -79 88 0
1 -79 -49 0
1 79 35 0
1 79 91 0
1 79 42 0
1 79 19 0
1 -79 90 0
1 79 -52 0
1 -79 38 0
1 76 80 0
1 76 41 0
1 76 -15 0
1 -76 23 0
1 -76 88 0
1 -76 82 0
1 76 -42 0
1 -76 19 0
1 -76 26 0
1 76 -78 0
1 76 90 0
1 76 -92 0
1 -78 80 0
1 78 -41 0
1 -78 -15 0
1 78 -23 0
1 -78 76 0
1 -78 -88 0
1 78 -93 0
1 78 -82 0
1 -78 42 0
1 -78 -19 0
1 78 26 0
1 78 -94 0
1 78 -90 0
1 78 92 0
1 -35 -22 0
1 35 -8 0
1 -35 9 0
1 -35 29 0
1 -35 -77 0
1 -35 -25 0
1 35 82 0
1 35 11 0
1 35 18 0
1 35 -12 0
1 35 -31 0
1 -35 79 0
1 35 28 0
1 35 38 0
1 38 80 0
1 38 22 0
1 -38 29 0
1 -38 77 0
1 -38 25 0
1 -38 -35 0
1 -38 18 0
1 38 11 0
1 -38 12 0
1 -38 31 0
1 -38 -79 0
1 -38 28 0
1 -49 -22 0
1 49 44 0
1 49 -29 0
1 -49 -77 0
1 -49 93 0
1 -49 -25 0
1 49 18 0
1 49 -43 0
1 -49 -37 0
1 -49 -31 0
1 -49 -79 0
1 -49 -52 0
1 -49 -28 0
1 -52 -44 0
1 52 -39 0
1 52 29 0
1 -52 77 0
1 52 -49 0
1 -52 -25 0
1 -52 -18 0
1 52 43 0
1 52 37 0
1 52 -31 0
1 -52 28 0
1 -52 79 0
1 52 92 0
1 18 -22 0
1 18 41 0
1 -18 -95 0
1 -18 -96 0
1 -18 45 0
1 -18 49 0
1 -18 -3 0
1 -18 -97 0
1 18 -42 0
1 -18 -98 0
1 -18 99 0
1 18 47 0
1 18 -52 0
1 -18 38 0
1 -22 100 0
1 22 41 0
1 -22 95 0
1 22 -96 0
1 22 45 0
1 22 49 0
1 22 -42 0
1 22 -98 0
1 22 47 0
1 22 52 0
1 22 -38 0
1 -25 41 0
1 -25 95 0
1 -25 -101 0
1 25 6 0
1 -25 35 0
1 25 102 0
1 25 -42 0
1 25 -98 0
1 -25 103 0
1 -25 -90 0
1 25 52 0
1 25 28 0
1 -25 38 0
1 28 41 0
1 -28 95 0
1 -28 101 0
1 -28 88 0
1 -28 -49 0
1 28 -25 0
1 -28 35 0
1 28 -42 0
1 28 -4 0
1 -28 98 0
1 -28 -103 0
1 28 90 0
1 -28 52 0
1 -28 104 0
1 28 38 0
1 -45 -22 0
1 45 -44 0
1 -45 29 0
1 -45 39 0
1 -45 -30 0
1 45 -88 0
1 -45 -18 0
1 -45 -43 0
1 45 -37 0
1 45 31 0
1 -45 47 0
1 47 22 0
1 47 44 0
1 47 39 0
1 47 29 0
1 47 30 0
1 -47 -45 0
1 47 -18 0
1 47 -43 0
1 -47 -37 0
1 -47 -31 0
1 47 32 0
1 47 -90 0
1 96 -22 0
1 96 44 0
1 96 -39 0
1 -96 51 0
1 -96 -48 0
1 -96 -101 0
1 -96 -18 0
1 -96 43 0
1 -96 50 0
1 -96 46 0
1 -99 22 0
1 -99 44 0
1 99 -39 0
1 -99 51 0
1 99 -48 0
1 99 96 0
1 -99 18 0
1 99 37 0
1 99 -50 0
1 -99 -46 0
1 99 103 0
1 -37 105 0
1 -37 39 0
1 -37 106 0
1 37 107 0
1 -37 45 0
1 -37 -49 0
1 -37 108 0
1 -37 12 0
1 -37 109 0
1 -37 47 0
1 37 -52 0
1 -39 9 0
1 -39 -105 0
1 -39 -110 0
1 39 106 0
1 -39 107 0
1 -39 -96 0
1 -39 -45 0
1 39 -49 0
1 -39 -108 0
1 39 111 0
1 39 37 0
1 -39 -112 0
1 39 99 0
1 39 47 0
1 -39 52 0
1 43 -44 0
1 -43 105 0
1 -43 95 0
1 -43 -96 0
1 -43 45 0
1 -43 -49 0
1 43 -11 0
1 43 108 0
1 -43 113 0
1 43 114 0
1 -43 47 0
1 43 -52 0
1 44 8 0
1 -44 115 0
1 44 -105 0
1 44 -116 0
1 44 -96 0
1 44 45 0
1 -44 -49 0
1 44 -108 0
1 -44 43 0
1 -44 114 0
1 -44 98 0
1 -44 99 0
1 -44 47 0
1 44 52 0
1 -107 39 0
1 -107 51 0
1 -107 48 0
1 107 -95 0
1 -107 -50 0
1 -107 37 0
1 -107 -112 0
1 107 -46 0
1 -112 39 0
1 112 51 0
1 112 -107 0
1 -112 -48 0
1 112 -50 0
1 112 -98 0
1 112 -46 0
1 106 39 0
1 106 -51 0
1 106 -116 0
1 -106 48 0
1 -106 -111 0
1 106 -37 0
1 106 50 0
1 106 -46 0
1 -111 39 0
1 -111 -106 0
1 111 51 0
1 111 48 0
1 -111 -37 0
1 111 50 0
1 -111 46 0
1 -46 117 0
1 -46 -106 0
1 -46 -107 0
1 46 48 0
1 46 -96 0
1 46 118 0
1 -46 111 0
1 46 112 0
1 -46 32 0
1 46 99 0
1 -46 -119 0
1 -48 -117 0
1 -48 -106 0
1 -48 30 0
1 -48 -120 0
1 48 96 0
1 48 -118 0
1 48 -111 0
1 48 -112 0
1 -48 -99 0
1 -48 -46 0
1 -50 117 0
1 -50 121 0
1 -50 -105 0
1 50 -106 0
1 -50 51 0
1 -50 -107 0
1 50 -96 0
1 50 -118 0
1 50 122 0
1 -50 -108 0
1 -50 111 0
1 50 112 0
1 50 123 0
1 -50 -99 0
1 51 117 0
1 -51 -121 0
1 -51 -105 0
1 -51 29 0
1 51 -106 0
1 51 -124 0
1 -51 -107 0
1 -51 96 0
1 -51 -118 0
1 -51 -122 0
1 -51 -50 0
1 -51 -108 0
1 51 111 0
1 -51 -99 0
1 -59 125 0
1 -59 -126 0
1 -59 -60 0
1 59 127 0
1 59 -128 0
1 59 -53 0
1 60 125 0
1 60 -126 0
1 -60 -56 0
1 -60 127 0
1 60 -128 0
1 -65 -126 0
1 -65 66 0
1 65 -129 0
1 65 -127 0
1 -65 128 0
1 -65 -130 0
1 -65 13 0
1 -66 125 0
1 66 126 0
1 66 -131 0
1 66 -14 0
1 66 -129 0
1 -66 127 0
1 66 -132 0
1 66 128 0
1 -66 -130 0
1 -66 65 0
1 -128 71 0
1 -128 -126 0
1 128 -72 0
1 -128 66 0
1 -128 -60 0
1 -128 -73 0
1 -128 -133 0
1 -128 74 0
1 -128 65 0
1 128 59 0
1 -126 128 0
1 126 -71 0
1 -126 -134 0
1 -126 -66 0
1 126 -60 0
1 -126 -73 0
1 126 -74 0
1 126 65 0
1 126 59 0
1 127 -135 0
1 -127 125 0
1 -127 66 0
1 127 60 0
1 -127 65 0
1 -127 -59 0
1 125 136 0
1 -125 66 0
1 -125 -127 0
1 -125 65 0
1 125 59 0
1 74 -54 0
1 -74 126 0
1 -74 72 0
1 74 131 0
1 -74 129 0
1 74 57 0
1 -74 128 0
1 -74 27 0
1 74 -130 0
1 -74 -132 0
1 -72 54 0
1 72 -126 0
1 72 -24 0
1 72 -131 0
1 -72 129 0
1 -72 -130 0
1 72 57 0
1 -72 128 0
1 -72 74 0
1 72 -132 0
1 -73 54 0
1 73 -71 0
1 73 -126 0
1 73 131 0
1 73 129 0
1 73 -137 0
1 -73 -138 0
1 -73 57 0
1 -73 -26 0
1 73 128 0
1 -73 -132 0
1 71 139 0
1 71 -54 0
1 71 128 0
1 71 23 0
1 71 -126 0
1 -71 131 0
1 -71 129 0
1 71 -137 0
1 -71 57 0
1 71 73 0
1 -71 -130 0
1 71 -132 0
1 -71 -140 0
1 132 141 0
1 -132 84 0
1 -132 -67 0
1 132 71 0
1 132 72 0
1 -132 66 0
1 132 129 0
1 -132 -142 0
1 132 86 0
1 -132 -69 0
1 132 -73 0
1 132 -74 0
1 -132 -65 0
1 -132 143 0
1 129 -141 0
1 -129 -84 0
1 129 67 0
1 -129 71 0
1 129 66 0
1 -129 144 0
1 129 -142 0
1 -129 -86 0
1 -129 69 0
1 -129 -132 0
1 -129 73 0
1 129 -74 0
1 129 -65 0
1 130 -141 0
1 130 -71 0
1 -130 -72 0
1 -130 131 0
1 130 -66 0
1 -130 142 0
1 -130 -73 0
1 -130 74 0
1 130 145 0
1 -130 -65 0
1 -131 141 0
1 131 71 0
1 131 72 0
1 -131 146 0
1 -131 -66 0
1 -131 130 0
1 -131 142 0
1 131 -73 0
1 131 74 0
1 -131 -65 0
1 69 -54 0
1 -69 -55 0
1 69 67 0
1 69 61 0
1 -69 -129 0
1 -69 137 0
1 69 -138 0
1 69 -57 0
1 69 -58 0
1 -69 -19 0
1 -69 132 0
1 -69 140 0
1 -67 54 0
1 -67 -15 0
1 -67 -55 0
1 -67 61 0
1 -67 129 0
1 -67 -137 0
1 -67 -138 0
1 -67 57 0
1 67 -58 0
1 67 -63 0
1 -67 -69 0
1 -67 -132 0
1 67 -140 0
1 86 139 0
1 -86 84 0
1 -86 -147 0
1 -86 61 0
1 -86 -129 0
1 -86 -138 0
1 -86 75 0
1 -86 42 0
1 -86 68 0
1 86 -63 0
1 -86 140 0
1 84 -139 0
1 -84 41 0
1 84 70 0
1 -84 147 0
1 84 61 0
1 84 129 0
1 84 137 0
1 -84 -138 0
1 -84 -75 0
1 -84 86 0
1 84 -63 0
1 84 -68 0
1 -84 132 0
1 -84 140 0
1 -139 80 0
1 139 -148 0
1 139 -84 0
1 139 -67 0
1 -139 71 0
1 -139 149 0
1 -139 93 0
1 -139 -138 0
1 -139 -86 0
1 -139 69 0
1 139 150 0
1 -139 -92 0
1 -138 -80 0
1 -138 -139 0
1 -138 84 0
1 -138 -67 0
1 138 71 0
1 -138 -149 0
1 -138 -93 0
1 138 151 0
1 138 -82 0
1 138 86 0
1 138 69 0
1 -138 73 0
1 -138 150 0
1 -138 -92 0
1 140 84 0
1 140 -67 0
1 140 -152 0
1 140 71 0
1 -140 137 0
1 140 149 0
1 140 -153 0
1 -140 -142 0
1 140 86 0
1 140 73 0
1 -140 150 0
1 140 154 0
1 137 -141 0
1 -137 67 0
1 -137 -71 0
1 137 149 0
1 137 153 0
1 -137 142 0
1 137 86 0
1 137 -69 0
1 137 -73 0
1 137 150 0
1 137 140 0
1 137 -154 0
1 -82 80 0
1 -82 -139 0
1 82 70 0
1 -82 147 0
1 -82 61 0
1 82 -62 0
1 -82 -76 0
1 82 -138 0
1 -82 35 0
1 82 75 0
1 -82 68 0
1 -82 -63 0
1 82 -64 0
1 82 -78 0
1 -80 139 0
1 80 141 0
1 80 -70 0
1 80 -147 0
1 80 -61 0
1 80 62 0
1 80 76 0
1 -80 -138 0
1 -80 82 0
1 -80 -68 0
1 -80 63 0
1 80 64 0
1 80 78 0
1 -80 -38 0
1 93 -139 0
1 93 70 0
1 93 147 0
1 93 85 0
1 93 -81 0
1 -93 -76 0
1 93 49 0
1 -93 -153 0
1 93 75 0
1 93 68 0
1 93 87 0
1 -93 -83 0
1 -93 -78 0
1 93 92 0
1 92 139 0
1 92 70 0
1 -92 85 0
1 -92 81 0
1 92 76 0
1 -92 93 0
1 92 -138 0
1 92 75 0
1 -92 68 0
1 -92 87 0
1 92 52 0
1 92 -154 0
1 -147 80 0
1 147 84 0
1 -147 55 0
1 -147 -155 0
1 147 156 0
1 147 101 0
1 147 88 0
1 -147 93 0
1 147 82 0
1 147 86 0
1 147 -157 0
1 -147 -103 0
1 147 -90 0
1 147 -92 0
1 68 -80 0
1 68 -84 0
1 -68 147 0
1 68 156 0
1 -68 101 0
1 68 88 0
1 68 -93 0
1 68 -82 0
1 -68 -58 0
1 -68 86 0
1 68 158 0
1 68 -157 0
1 68 103 0
1 68 -90 0
1 -68 92 0
1 70 80 0
1 -70 54 0
1 70 -84 0
1 -70 -159 0
1 -70 156 0
1 -70 -149 0
1 70 -93 0
1 -70 -82 0
1 -70 75 0
1 70 -157 0
1 70 160 0
1 70 -150 0
1 70 92 0
1 75 -80 0
1 -75 84 0
1 75 70 0
1 75 -156 0
1 -75 161 0
1 -75 93 0
1 -75 -82 0
1 -75 -86 0
1 -75 -157 0
1 75 -160 0
1 75 -150 0
1 -75 92 0
1 88 147 0
1 -88 -85 0
1 88 -81 0
1 88 76 0
1 -88 77 0
1 -88 149 0
1 -88 -25 0
1 -88 68 0
1 -88 83 0
1 88 78 0
1 88 -79 0
1 88 90 0
1 -88 28 0
1 -90 -147 0
1 -90 85 0
1 -90 -81 0
1 90 -79 0
1 -90 -88 0
1 -90 25 0
1 -90 -68 0
1 -90 -87 0
1 -90 83 0
1 90 -78 0
1 -90 -47 0
1 -90 150 0
1 90 -28 0
1 101 -147 0
1 101 -85 0
1 101 81 0
1 101 96 0
1 -101 -162 0
1 101 -161 0
1 -101 -25 0
1 101 87 0
1 -101 83 0
1 101 -103 0
1 101 91 0
1 -101 -28 0
1 103 147 0
1 103 85 0
1 -103 81 0
1 103 -101 0
1 -103 -162 0
1 103 89 0
1 103 25 0
1 -103 68 0
1 103 87 0
1 -103 -83 0
1 103 99 0
1 103 94 0
1 -103 160 0
1 103 91 0
1 -103 -28 0
1 -81 -83 0
1 81 -163 0
1 81 -116 0
1 -81 -62 0
1 81 95 0
1 81 164 0
1 81 -101 0
1 81 88 0
1 -81 93 0
1 81 165 0
1 -81 114 0
1 81 98 0
1 81 90 0
1 -81 -92 0
1 -83 163 0
1 83 -95 0
1 83 81 0
1 83 101 0
1 -83 88 0
1 83 93 0
1 -83 165 0
1 83 114 0
1 -83 -64 0
1 -83 98 0
1 83 166 0
1 83 -103 0
1 -85 163 0
1 85 -61 0
1 85 167 0
1 85 -168 0
1 85 156 0
1 -85 -101 0
1 -85 -88 0
1 85 93 0
1 -85 165 0
1 -85 87 0
1 -85 169 0
1 85 -157 0
1 -85 103 0
1 -85 -90 0
1 85 -92 0
1 -87 -163 0
1 -87 170 0
1 -87 85 0
1 -87 -167 0
1 87 156 0
1 -87 -101 0
1 87 88 0
1 -87 -165 0
1 87 -63 0
1 87 -169 0
1 -87 157 0
1 -87 -103 0
1 -87 -90 0
1 -87 -92 0
1 -95 -22 0
1 95 44 0
1 95 -83 0
1 95 -107 0
1 -95 81 0
1 -95 -156 0
1 95 162 0
1 95 89 0
1 -95 25 0
1 95 -18 0
1 95 43 0
1 -95 98 0
1 95 -28 0
1 -98 -22 0
1 -98 44 0
1 98 95 0
1 98 -162 0
1 98 89 0
1 98 25 0
1 98 -18 0
1 -98 43 0
1 -98 -83 0
1 98 -28 0
1 -116 100 0
1 -116 44 0
1 -116 106 0
1 116 167 0
1 -116 81 0
1 -116 -162 0
1 116 89 0
1 -116 102 0
1 -116 -97 0
1 116 -43 0
1 116 114 0
1 -116 -94 0
1 116 91 0
1 114 100 0
1 -114 -44 0
1 -114 -116 0
1 -114 -162 0
1 114 89 0
1 114 102 0
1 -114 -97 0
1 114 -43 0
1 -114 111 0
1 114 -83 0
1 114 94 0
1 114 91 0
1 114 -104 0
1 89 171 0
1 89 -121 0
1 89 -105 0
1 89 -116 0
1 -89 95 0
1 89 -101 0
1 89 -77 0
1 -89 -172 0
1 -89 -122 0
1 89 108 0
1 -89 114 0
1 -89 -98 0
1 89 -103 0
1 -89 -91 0
1 91 171 0
1 91 -121 0
1 -91 105 0
1 -91 116 0
1 91 -95 0
1 -91 101 0
1 -91 -89 0
1 -91 -173 0
1 -91 122 0
1 91 108 0
1 -91 -114 0
1 -91 -98 0
1 -91 103 0
1 -91 79 0
1 91 174 0
1 162 171 0
1 162 -175 0
1 -162 -116 0
1 -162 -94 0
1 -162 95 0
1 162 76 0
1 162 101 0
1 -162 -173 0
1 162 -165 0
1 162 -114 0
1 -162 -98 0
1 162 -103 0
1 94 171 0
1 -94 175 0
1 -94 -163 0
1 -94 -116 0
1 94 -95 0
1 94 101 0
1 94 -162 0
1 94 -173 0
1 94 -176 0
1 -94 114 0
1 94 -98 0
1 -94 -78 0
1 94 103 0
1 94 177 0
1 105 -100 0
1 -105 44 0
1 -105 -39 0
1 -105 -163 0
1 105 51 0
1 105 89 0
1 -105 -102 0
1 105 97 0
1 105 108 0
1 -105 -43 0
1 105 37 0
1 -105 -50 0
1 105 91 0
1 108 -100 0
1 108 -44 0
1 -108 105 0
1 -108 39 0
1 -108 -51 0
1 -108 89 0
1 -108 102 0
1 108 97 0
1 108 -43 0
1 -108 -37 0
1 -108 -50 0
1 -108 91 0
1 108 -104 0
1 121 -100 0
1 121 -175 0
1 -121 115 0
1 121 110 0
1 -121 51 0
1 -121 89 0
1 -121 -102 0
1 121 122 0
1 -121 97 0
1 -121 -109 0
1 121 50 0
1 121 -91 0
1 -121 -104 0
1 -122 121 0
1 -122 -110 0
1 -122 -51 0
1 122 -89 0
1 122 -102 0
1 -122 -176 0
1 -122 -113 0
1 -122 -109 0
1 122 50 0
1 -122 91 0
1 -122 104 0
1 -97 117 0
1 97 -100 0
1 -97 -121 0
1 97 -105 0
1 97 -116 0
1 97 -178 0
1 -97 118 0
1 -97 122 0
1 -97 -18 0
1 -97 -108 0
1 -97 -114 0
1 -97 -179 0
1 -97 -180 0
1 -100 -117 0
1 -100 -22 0
1 -100 121 0
1 -100 105 0
1 100 -116 0
1 100 -181 0
1 100 -178 0
1 -100 -118 0
1 100 122 0
1 -100 -108 0
1 100 -179 0
1 -100 -180 0
1 102 171 0
1 -102 121 0
1 102 105 0
1 -102 116 0
1 102 181 0
1 -102 -182 0
1 -102 -25 0
1 102 -173 0
1 102 -122 0
1 -102 108 0
1 -102 -114 0
1 102 179 0
1 102 -104 0
1 -102 -183 0
1 104 171 0
1 -104 -121 0
1 -104 -116 0
1 104 -181 0
1 -104 173 0
1 -104 122 0
1 104 -102 0
1 104 108 0
1 -104 114 0
1 104 179 0
1 -104 -28 0
1 104 -183 0
1 -117 -171 0
1 117 -100 0
1 -117 -110 0
1 -117 51 0
1 -117 -48 0
1 -117 -118 0
1 -117 -97 0
1 117 -113 0
1 -117 -109 0
1 -117 -50 0
1 -118 -117 0
1 -118 -100 0
1 -118 -115 0
1 118 110 0
1 118 48 0
1 -118 -173 0
1 -118 -97 0
1 -118 113 0
1 -118 -109 0
1 -118 -50 0
1 118 46 0
1 -180 100 0
1 -180 -115 0
1 180 -110 0
1 -180 124 0
1 180 178 0
1 180 97 0
1 -180 113 0
1 -180 109 0
1 -180 -123 0
1 -180 119 0
1 180 -183 0
1 -178 100 0
1 178 -115 0
1 178 110 0
1 -178 -124 0
1 -178 120 0
1 178 182 0
1 178 97 0
1 -178 -113 0
1 -178 -109 0
1 178 123 0
1 178 119 0
1 178 -180 0
1 109 117 0
1 109 121 0
1 -109 110 0
1 -109 184 0
1 109 -185 0
1 109 178 0
1 109 118 0
1 109 122 0
1 109 -37 0
1 109 186 0
1 -109 -187 0
1 -109 -180 0
1 -110 117 0
1 110 -121 0
1 -110 -39 0
1 -110 -184 0
1 110 -185 0
1 -110 -178 0
1 -110 -118 0
1 110 122 0
1 110 -109 0
1 110 186 0
1 110 187 0
1 110 -180 0
1 -113 117 0
1 113 121 0
1 113 -115 0
1 -113 -188 0
1 113 -181 0
1 -113 178 0
1 113 118 0
1 113 -122 0
1 113 43 0
1 113 -189 0
1 113 179 0
1 -113 -180 0
1 -115 -117 0
1 115 -121 0
1 -115 -44 0
1 115 -188 0
1 -115 -181 0
1 115 178 0
1 -115 118 0
1 115 122 0
1 115 -113 0
1 -115 -179 0
1 -187 -110 0
1 187 124 0
1 -187 120 0
1 -187 185 0
1 187 109 0
1 -187 -123 0
1 -187 179 0
1 185 110 0
1 -185 -124 0
1 -185 120 0
1 185 -181 0
1 185 109 0
1 185 -123 0
1 185 119 0
1 -185 187 0
1 186 110 0
1 186 124 0
1 -186 184 0
1 186 120 0
1 186 109 0
1 186 123 0
1 -186 -119 0
1 186 -189 0
1 -184 119 0
1 184 -110 0
1 -184 124 0
1 -184 120 0
1 -184 -188 0
1 184 109 0
1 184 -123 0
1 -119 184 0
1 119 120 0
1 119 185 0
1 -119 178 0
1 119 -46 0
1 -119 186 0
1 119 -187 0
1 -119 180 0
1 120 119 0
1 -120 -48 0
1 120 -184 0
1 120 185 0
1 -120 178 0
1 120 187 0
1 123 124 0
1 123 184 0
1 -123 -185 0
1 123 178 0
1 -123 50 0
1 123 -186 0
1 -123 187 0
1 -123 180 0
1 124 51 0
1 -124 -184 0
1 124 -185 0
1 -124 -178 0
1 -124 123 0
1 -124 186 0
1 -124 -187 0
1 142 -141 0
1 -142 134 0
1 142 131 0
1 -142 129 0
1 -142 137 0
1 142 -82 0
1 142 135 0
1 142 -133 0
1 -142 132 0
1 -142 140 0
1 141 -80 0
1 141 136 0
1 141 -134 0
1 -141 131 0
1 141 -129 0
1 141 -137 0
1 141 -142 0
1 141 -135 0
1 -141 -133 0
1 -141 130 0
1 141 -140 0
1 153 -136 0
1 153 -134 0
1 153 146 0
1 153 -144 0
1 153 -137 0
1 153 93 0
1 -153 135 0
1 -153 -133 0
1 153 -145 0
1 153 -143 0
1 153 -140 0
1 153 154 0
1 -154 -136 0
1 -154 -134 0
1 154 -146 0
1 154 144 0
1 154 153 0
1 154 -135 0
1 -154 -133 0
1 154 -145 0
1 -154 143 0
1 -154 -140 0
1 -154 92 0
1 -133 141 0
1 133 -134 0
1 -133 -161 0
1 -133 149 0
1 133 190 0
1 -133 153 0
1 133 142 0
1 133 -128 0
1 -133 -160 0
1 -133 150 0
1 133 -154 0
1 -134 141 0
1 -134 126 0
1 -134 -191 0
1 -134 -161 0
1 -134 149 0
1 -134 -153 0
1 -134 -142 0
1 134 133 0
1 134 160 0
1 -134 150 0
1 134 -154 0
1 -135 141 0
1 135 153 0
1 -135 142 0
1 -135 -127 0
1 135 192 0
1 -135 154 0
1 136 -125 0
1 136 -193 0
1 -136 153 0
1 -136 135 0
1 -136 154 0
1 -149 -139 0
1 149 -70 0
1 -149 -134 0
1 -149 144 0
1 -149 137 0
1 -149 138 0
1 -149 75 0
1 -149 -133 0
1 -149 -145 0
1 -149 -143 0
1 149 -150 0
1 -149 140 0
1 150 -140 0
1 -150 70 0
1 150 -134 0
1 150 146 0
1 -150 -144 0
1 150 -149 0
1 150 -138 0
1 150 75 0
1 150 -133 0
1 150 -145 0
1 -150 90 0
1 -150 143 0
1 -161 -148 0
1 -161 -70 0
1 -161 -134 0
1 -161 146 0
1 -161 -101 0
1 161 144 0
1 161 194 0
1 161 151 0
1 161 75 0
1 161 145 0
1 -161 160 0
1 161 143 0
1 -161 152 0
1 -160 -148 0
1 -160 -70 0
1 -160 -134 0
1 -160 146 0
1 160 144 0
1 160 -194 0
1 -160 75 0
1 160 133 0
1 -160 -103 0
1 -160 145 0
1 -160 -143 0
1 160 152 0
1 143 -195 0
1 -143 -156 0
1 -143 -161 0
1 -143 144 0
1 -143 149 0
1 -143 -153 0
1 -143 196 0
1 143 -169 0
1 143 157 0
1 -143 -160 0
1 143 132 0
1 -143 -150 0
1 143 197 0
1 -143 -154 0
1 144 -195 0
1 144 -167 0
1 -144 156 0
1 -144 -129 0
1 -144 161 0
1 144 -198 0
1 144 149 0
1 144 153 0
1 144 196 0
1 -144 -169 0
1 144 157 0
1 144 160 0
1 144 -143 0
1 -144 -150 0
1 145 -195 0
1 145 -146 0
1 -145 161 0
1 145 -149 0
1 145 -130 0
1 -145 -153 0
1 145 -196 0
1 -145 -199 0
1 -145 150 0
1 -145 -154 0
1 -146 -195 0
1 146 131 0
1 146 -161 0
1 146 -200 0
1 146 -149 0
1 146 153 0
1 -146 -145 0
1 146 196 0
1 -146 160 0
1 -146 -150 0
1 -146 -154 0
1 -156 148 0
1 156 70 0
1 -156 -147 0
1 -156 -85 0
1 156 -95 0
1 -156 -144 0
1 -156 -194 0
1 -156 151 0
1 156 75 0
1 156 68 0
1 -156 -157 0
1 156 -143 0
1 156 152 0
1 -157 148 0
1 157 70 0
1 -157 147 0
1 157 85 0
1 -157 -144 0
1 157 194 0
1 -157 -151 0
1 157 75 0
1 157 68 0
1 -157 87 0
1 157 143 0
1 -157 -152 0
1 -167 148 0
1 167 -159 0
1 -167 -155 0
1 167 85 0
1 167 -116 0
1 -167 144 0
1 167 194 0
1 167 151 0
1 -167 -201 0
1 167 158 0
1 -167 -87 0
1 167 -169 0
1 167 -143 0
1 -169 -148 0
1 -169 159 0
1 -169 -155 0
1 -169 -85 0
1 169 -167 0
1 169 -144 0
1 169 194 0
1 -169 -151 0
1 169 -201 0
1 169 158 0
1 169 87 0
1 -169 -114 0
1 169 -143 0
1 169 -152 0
1 -148 139 0
1 148 -202 0
1 -148 -175 0
1 148 -163 0
1 148 -167 0
1 -148 -156 0
1 148 161 0
1 148 151 0
1 148 203 0
1 -148 176 0
1 148 165 0
1 148 -169 0
1 -148 157 0
1 -148 -160 0
1 -151 -202 0
1 -151 -163 0
1 151 -167 0
1 151 -156 0
1 -151 -161 0
1 151 138 0
1 -151 -203 0
1 151 -204 0
1 151 165 0
1 -151 -169 0
1 151 -157 0
1 -151 160 0
1 152 -205 0
1 152 -202 0
1 -152 206 0
1 -152 195 0
1 -152 167 0
1 -152 -156 0
1 -152 161 0
1 -152 194 0
1 -152 -203 0
1 -152 -207 0
1 152 -196 0
1 152 -169 0
1 -152 157 0
1 152 140 0
1 194 -202 0
1 194 206 0
1 -194 195 0
1 -194 167 0
1 194 156 0
1 194 161 0
1 194 137 0
1 194 -203 0
1 194 207 0
1 -194 196 0
1 194 -169 0
1 -194 157 0
1 -194 160 0
1 -194 -152 0
1 -163 148 0
1 163 -105 0
1 163 159 0
1 163 -195 0
1 -163 85 0
1 -163 -155 0
1 163 -81 0
1 -163 -162 0
1 163 -151 0
1 163 -201 0
1 -163 158 0
1 163 -87 0
1 -163 -83 0
1 -163 -94 0
1 -165 159 0
1 165 -163 0
1 -165 155 0
1 165 -85 0
1 -165 -81 0
1 165 -162 0
1 -165 151 0
1 165 -108 0
1 165 201 0
1 -165 -196 0
1 -165 -87 0
1 165 -158 0
1 -165 83 0
1 -165 -94 0
1 175 148 0
1 175 -121 0
1 175 206 0
1 175 159 0
1 -175 155 0
1 -175 168 0
1 175 -164 0
1 -175 -162 0
1 -175 151 0
1 -175 -176 0
1 175 -201 0
1 -175 158 0
1 -175 -170 0
1 175 -166 0
1 -175 94 0
1 -176 -148 0
1 -176 -175 0
1 176 -159 0
1 176 -155 0
1 -176 -164 0
1 -176 162 0
1 -176 -151 0
1 -176 -207 0
1 176 170 0
1 -176 166 0
1 176 94 0
1 -155 -171 0
1 -155 175 0
1 155 -163 0
1 -155 147 0
1 155 -167 0
1 155 -208 0
1 155 182 0
1 155 173 0
1 -155 -176 0
1 -155 -165 0
1 155 -158 0
1 -155 -183 0
1 -158 -171 0
1 -158 -163 0
1 158 155 0
1 158 167 0
1 158 208 0
1 -158 -182 0
1 158 173 0
1 -158 176 0
1 158 165 0
1 -158 -68 0
1 -158 -183 0
1 159 -209 0
1 -159 70 0
1 -159 163 0
1 159 -167 0
1 -159 -208 0
1 159 -210 0
1 -159 -203 0
1 -159 176 0
1 -159 201 0
1 -159 169 0
1 -201 -209 0
1 -201 202 0
1 -201 175 0
1 201 159 0
1 -201 163 0
1 -201 -167 0
1 -201 208 0
1 201 210 0
1 201 176 0
1 201 75 0
1 201 -165 0
1 201 -169 0
1 -171 117 0
1 -171 202 0
1 -171 168 0
1 171 -164 0
1 171 89 0
1 -171 173 0
1 -171 102 0
1 171 158 0
1 171 -170 0
1 171 166 0
1 -173 -171 0
1 -173 155 0
1 -173 168 0
1 -173 164 0
1 -173 -162 0
1 -173 -89 0
1 -173 -118 0
1 173 203 0
1 -173 -158 0
1 -173 170 0
1 -173 -166 0
1 173 -94 0
1 -173 -91 0
1 173 -104 0
1 -183 209 0
1 -183 -155 0
1 183 -168 0
1 183 -164 0
1 183 211 0
1 -183 182 0
1 -183 -172 0
1 183 -102 0
1 183 158 0
1 -183 170 0
1 -183 166 0
1 183 -177 0
1 -183 180 0
1 -182 -155 0
1 -182 -168 0
1 -182 164 0
1 182 183 0
1 -182 211 0
1 -182 -178 0
1 182 -172 0
1 -182 -210 0
1 182 -102 0
1 182 158 0
1 182 -170 0
1 -182 166 0
1 -182 177 0
1 182 174 0
1 -182 -104 0
1 164 171 0
1 -164 -175 0
1 -164 166 0
1 -164 -188 0
1 -164 -181 0
1 164 182 0
1 164 173 0
1 -164 176 0
1 164 -189 0
1 -164 -179 0
1 -164 -183 0
1 166 164 0
1 -166 -181 0
1 -166 182 0
1 166 -173 0
1 -166 -176 0
1 166 -83 0
1 -166 -189 0
1 166 -179 0
1 166 183 0
1 168 171 0
1 -168 175 0
1 -168 -85 0
1 -168 212 0
1 168 -208 0
1 -168 182 0
1 168 -173 0
1 -168 176 0
1 168 170 0
1 -168 213 0
1 -168 183 0
1 170 171 0
1 170 -175 0
1 -170 168 0
1 170 212 0
1 -170 -208 0
1 -170 182 0
1 170 173 0
1 170 -176 0
1 170 87 0
1 -170 213 0
1 -170 -183 0
1 179 100 0
1 -179 -115 0
1 179 -164 0
1 179 -181 0
1 -179 -211 0
1 179 -172 0
1 179 -102 0
1 -179 97 0
1 -179 113 0
1 -179 -166 0
1 179 -177 0
1 179 -187 0
1 179 174 0
1 181 -100 0
1 -181 -115 0
1 181 -164 0
1 181 -211 0
1 -181 208 0
1 181 172 0
1 181 102 0
1 -181 97 0
1 -181 -113 0
1 181 -174 0
1 181 166 0
1 -181 -177 0
1 -181 -179 0
1 -181 -104 0
1 -189 115 0
1 189 188 0
1 -189 -164 0
1 -189 -211 0
1 189 172 0
1 -189 113 0
1 -189 -166 0
1 189 -186 0
1 -189 177 0
1 -189 -213 0
1 189 -174 0
1 -188 -115 0
1 -188 184 0
1 188 -164 0
1 188 -212 0
1 188 -177 0
1 188 172 0
1 188 113 0
1 -188 166 0
1 -188 189 0
1 188 174 0
1 172 -188 0
1 172 181 0
1 -172 -89 0
1 172 -182 0
1 -172 174 0
1 172 179 0
1 172 183 0
1 -174 -188 0
1 -174 181 0
1 174 182 0
1 174 -189 0
1 174 -91 0
1 174 -179 0
1 174 -183 0
1 -211 188 0
1 -211 -162 0
1 211 -181 0
1 211 182 0
1 211 177 0
1 211 -189 0
1 211 -179 0
1 211 183 0
1 177 -188 0
1 -177 181 0
1 -177 -211 0
1 -177 -182 0
1 177 -94 0
1 -177 -189 0
1 177 179 0
1 195 -163 0
1 -195 193 0
1 -195 191 0
1 195 -146 0
1 195 -144 0
1 195 196 0
1 195 192 0
1 195 -190 0
1 195 -145 0
1 -195 -143 0
1 -195 152 0
1 196 195 0
1 196 193 0
1 -196 191 0
1 -196 144 0
1 -196 -194 0
1 196 165 0
1 196 -192 0
1 -196 -190 0
1 196 145 0
1 196 143 0
1 -196 -152 0
1 -206 -175 0
1 -206 193 0
1 -206 191 0
1 -206 200 0
1 -206 -198 0
1 -206 -194 0
1 206 -207 0
1 -206 192 0
1 -206 190 0
1 -206 199 0
1 206 -197 0
1 -207 -206 0
1 -207 -193 0
1 207 -191 0
1 207 -200 0
1 207 198 0
1 -207 194 0
1 207 176 0
1 207 192 0
1 207 -190 0
1 207 -199 0
1 -207 -197 0
1 207 152 0
1 -190 209 0
1 190 -202 0
1 -190 206 0
1 190 -195 0
1 190 -191 0
1 -190 210 0
1 -190 203 0
1 190 -207 0
1 -190 -196 0
1 -190 -133 0
1 191 209 0
1 -191 -202 0
1 191 206 0
1 -191 195 0
1 191 134 0
1 191 203 0
1 191 207 0
1 191 196 0
1 191 190 0
1 -192 206 0
1 192 -193 0
1 -192 207 0
1 192 -196 0
1 192 -135 0
1 -193 206 0
1 193 195 0
1 -193 192 0
1 -193 -136 0
1 193 196 0
1 202 -171 0
1 202 148 0
1 202 -159 0
1 202 -191 0
1 -202 200 0
1 -202 198 0
1 202 -194 0
1 -202 203 0
1 -202 201 0
1 202 -190 0
1 -202 -199 0
1 -202 197 0
1 202 152 0
1 203 148 0
1 203 -202 0
1 -203 159 0
1 203 -191 0
1 -203 -198 0
1 203 194 0
1 -203 173 0
1 -203 151 0
1 203 -201 0
1 203 190 0
1 -203 199 0
1 -203 197 0
1 203 152 0
1 -209 -214 0
1 -209 159 0
1 -209 -191 0
1 209 200 0
1 209 -198 0
1 209 -210 0
1 209 215 0
1 209 -201 0
1 -209 199 0
1 209 197 0
1 -209 -183 0
1 -210 -209 0
1 -210 214 0
1 -210 -191 0
1 210 -200 0
1 -210 198 0
1 210 -182 0
1 -210 215 0
1 210 -204 0
1 -210 -201 0
1 210 190 0
1 -210 199 0
1 -210 -197 0
1 197 209 0
1 -197 -202 0
1 197 -206 0
1 197 -212 0
1 197 208 0
1 197 -198 0
1 -197 -210 0
1 197 203 0
1 197 207 0
1 197 -213 0
1 197 -143 0
1 -198 -202 0
1 -198 206 0
1 -198 212 0
1 -198 208 0
1 -198 210 0
1 -198 -203 0
1 -198 213 0
1 198 -197 0
1 -199 -209 0
1 199 206 0
1 -199 200 0
1 -199 210 0
1 -199 203 0
1 -199 207 0
1 199 -145 0
1 200 209 0
1 -200 -202 0
1 200 206 0
1 200 146 0
1 200 -210 0
1 -200 203 0
1 -200 207 0
1 -200 -199 0
1 -208 -205 0
1 208 -214 0
1 -208 -159 0
1 208 155 0
1 -208 -168 0
1 208 -181 0
1 -208 198 0
1 -208 -215 0
1 -208 204 0
1 -208 -201 0
1 -208 158 0
1 208 170 0
1 208 -197 0
1 213 205 0
1 213 -214 0
1 213 -168 0
1 -213 212 0
1 213 -215 0
1 -213 -204 0
1 -213 -170 0
1 -213 189 0
1 213 -197 0
1 -212 205 0
1 212 214 0
1 212 -168 0
1 -212 188 0
1 212 -198 0
1 212 -215 0
1 212 204 0
1 212 170 0
1 212 213 0
1 212 197 0
1 214 209 0
1 -214 -148 0
1 -214 -212 0
1 -214 208 0
1 -214 -210 0
1 214 -204 0
1 214 -213 0
1 204 209 0
1 204 -212 0
1 204 -208 0
1 204 210 0
1 -204 213 0
1 -205 -212 0
1 205 208 0
1 205 -210 0
1 -205 215 0
1 -205 -213 0
1 205 -152 0
1 215 209 0
1 -215 205 0
1 -215 -212 0
1 -215 -208 0
1 215 194 0
1 215 210 0
1 215 213 0
